*SENSE:Minimize
NAME          MODEL
ROWS
 N  OBJ
 E  C0000000
 E  C0000001
 L  C0000002
 L  C0000003
 L  C0000004
 L  C0000005
 L  C0000006
 L  C0000007
 L  C0000008
 L  C0000009
 L  C0000010
 E  C0000011
 E  C0000012
 L  C0000013
 L  C0000014
 L  C0000015
 L  C0000016
 L  C0000017
 L  C0000018
 L  C0000019
 L  C0000020
 E  C0000021
 E  C0000022
 L  C0000023
 L  C0000024
 L  C0000025
 L  C0000026
 L  C0000027
 L  C0000028
 L  C0000029
 L  C0000030
 E  C0000031
 E  C0000032
 L  C0000033
 L  C0000034
 L  C0000035
 L  C0000036
 L  C0000037
 L  C0000038
 L  C0000039
 L  C0000040
 E  C0000041
 E  C0000042
 L  C0000043
 L  C0000044
 L  C0000045
 L  C0000046
 L  C0000047
 L  C0000048
 L  C0000049
 L  C0000050
 E  C0000051
 E  C0000052
 L  C0000053
 L  C0000054
 L  C0000055
 L  C0000056
 L  C0000057
 L  C0000058
 L  C0000059
 L  C0000060
 E  C0000061
 E  C0000062
 L  C0000063
 L  C0000064
 L  C0000065
 L  C0000066
 L  C0000067
 L  C0000068
 L  C0000069
 L  C0000070
 E  C0000071
 E  C0000072
 L  C0000073
 L  C0000074
 L  C0000075
 L  C0000076
 L  C0000077
 L  C0000078
 L  C0000079
 L  C0000080
 E  C0000081
 E  C0000082
 L  C0000083
 L  C0000084
 L  C0000085
 L  C0000086
 L  C0000087
 L  C0000088
 L  C0000089
 L  C0000090
 E  C0000091
 E  C0000092
 L  C0000093
 L  C0000094
 L  C0000095
 L  C0000096
 L  C0000097
 L  C0000098
 L  C0000099
 L  C0000100
 L  C0000101
 L  C0000102
 L  C0000103
 L  C0000104
 L  C0000105
 L  C0000106
 L  C0000107
 L  C0000108
 L  C0000109
 L  C0000110
 L  C0000111
 L  C0000112
 L  C0000113
 L  C0000114
 L  C0000115
 L  C0000116
 L  C0000117
 L  C0000118
 E  C0000119
 E  C0000120
COLUMNS
    X0000000  C0000120   1.000000000000e+00
    X0000001  C0000119   1.000000000000e+00
    X0000002  C0000002   1.000000000000e+00
    X0000002  C0000003   1.000000000000e+00
    X0000002  C0000004   1.000000000000e+00
    X0000002  C0000005   1.000000000000e+00
    X0000002  C0000006   1.000000000000e+00
    X0000002  C0000007   1.000000000000e+00
    X0000002  C0000008   1.000000000000e+00
    X0000002  C0000009   1.000000000000e+00
    X0000002  C0000010   1.000000000000e+00
    X0000003  C0000002  -1.000000000000e+00
    X0000003  C0000013   1.000000000000e+00
    X0000003  C0000014   1.000000000000e+00
    X0000003  C0000015   1.000000000000e+00
    X0000003  C0000016   1.000000000000e+00
    X0000003  C0000017   1.000000000000e+00
    X0000003  C0000018   1.000000000000e+00
    X0000003  C0000019   1.000000000000e+00
    X0000003  C0000020   1.000000000000e+00
    X0000003  C0000023  -1.000000000000e+00
    X0000003  C0000033  -1.000000000000e+00
    X0000003  C0000043  -1.000000000000e+00
    X0000003  C0000053  -1.000000000000e+00
    X0000003  C0000063  -1.000000000000e+00
    X0000003  C0000073  -1.000000000000e+00
    X0000003  C0000083  -1.000000000000e+00
    X0000003  C0000093  -1.000000000000e+00
    X0000003  C0000101  -1.000000000000e+00
    X0000003  C0000102   1.000000000000e+00
    X0000004  C0000003  -1.000000000000e+00
    X0000004  C0000013  -1.000000000000e+00
    X0000004  C0000023   1.000000000000e+00
    X0000004  C0000024   1.000000000000e+00
    X0000004  C0000025   1.000000000000e+00
    X0000004  C0000026   1.000000000000e+00
    X0000004  C0000027   1.000000000000e+00
    X0000004  C0000028   1.000000000000e+00
    X0000004  C0000029   1.000000000000e+00
    X0000004  C0000030   1.000000000000e+00
    X0000004  C0000034  -1.000000000000e+00
    X0000004  C0000044  -1.000000000000e+00
    X0000004  C0000054  -1.000000000000e+00
    X0000004  C0000064  -1.000000000000e+00
    X0000004  C0000074  -1.000000000000e+00
    X0000004  C0000084  -1.000000000000e+00
    X0000004  C0000094  -1.000000000000e+00
    X0000004  C0000103  -1.000000000000e+00
    X0000004  C0000104   1.000000000000e+00
    X0000005  C0000004  -1.000000000000e+00
    X0000005  C0000014  -1.000000000000e+00
    X0000005  C0000024  -1.000000000000e+00
    X0000005  C0000033   1.000000000000e+00
    X0000005  C0000034   1.000000000000e+00
    X0000005  C0000035   1.000000000000e+00
    X0000005  C0000036   1.000000000000e+00
    X0000005  C0000037   1.000000000000e+00
    X0000005  C0000038   1.000000000000e+00
    X0000005  C0000039   1.000000000000e+00
    X0000005  C0000040   1.000000000000e+00
    X0000005  C0000045  -1.000000000000e+00
    X0000005  C0000055  -1.000000000000e+00
    X0000005  C0000065  -1.000000000000e+00
    X0000005  C0000075  -1.000000000000e+00
    X0000005  C0000085  -1.000000000000e+00
    X0000005  C0000095  -1.000000000000e+00
    X0000005  C0000105  -1.000000000000e+00
    X0000005  C0000106   1.000000000000e+00
    X0000006  C0000005  -1.000000000000e+00
    X0000006  C0000015  -1.000000000000e+00
    X0000006  C0000025  -1.000000000000e+00
    X0000006  C0000035  -1.000000000000e+00
    X0000006  C0000043   1.000000000000e+00
    X0000006  C0000044   1.000000000000e+00
    X0000006  C0000045   1.000000000000e+00
    X0000006  C0000046   1.000000000000e+00
    X0000006  C0000047   1.000000000000e+00
    X0000006  C0000048   1.000000000000e+00
    X0000006  C0000049   1.000000000000e+00
    X0000006  C0000050   1.000000000000e+00
    X0000006  C0000056  -1.000000000000e+00
    X0000006  C0000066  -1.000000000000e+00
    X0000006  C0000076  -1.000000000000e+00
    X0000006  C0000086  -1.000000000000e+00
    X0000006  C0000096  -1.000000000000e+00
    X0000006  C0000107  -1.000000000000e+00
    X0000006  C0000108   1.000000000000e+00
    X0000007  C0000006  -1.000000000000e+00
    X0000007  C0000016  -1.000000000000e+00
    X0000007  C0000026  -1.000000000000e+00
    X0000007  C0000036  -1.000000000000e+00
    X0000007  C0000046  -1.000000000000e+00
    X0000007  C0000053   1.000000000000e+00
    X0000007  C0000054   1.000000000000e+00
    X0000007  C0000055   1.000000000000e+00
    X0000007  C0000056   1.000000000000e+00
    X0000007  C0000057   1.000000000000e+00
    X0000007  C0000058   1.000000000000e+00
    X0000007  C0000059   1.000000000000e+00
    X0000007  C0000060   1.000000000000e+00
    X0000007  C0000067  -1.000000000000e+00
    X0000007  C0000077  -1.000000000000e+00
    X0000007  C0000087  -1.000000000000e+00
    X0000007  C0000097  -1.000000000000e+00
    X0000007  C0000109  -1.000000000000e+00
    X0000007  C0000110   1.000000000000e+00
    X0000008  C0000007  -1.000000000000e+00
    X0000008  C0000017  -1.000000000000e+00
    X0000008  C0000027  -1.000000000000e+00
    X0000008  C0000037  -1.000000000000e+00
    X0000008  C0000047  -1.000000000000e+00
    X0000008  C0000057  -1.000000000000e+00
    X0000008  C0000063   1.000000000000e+00
    X0000008  C0000064   1.000000000000e+00
    X0000008  C0000065   1.000000000000e+00
    X0000008  C0000066   1.000000000000e+00
    X0000008  C0000067   1.000000000000e+00
    X0000008  C0000068   1.000000000000e+00
    X0000008  C0000069   1.000000000000e+00
    X0000008  C0000070   1.000000000000e+00
    X0000008  C0000078  -1.000000000000e+00
    X0000008  C0000088  -1.000000000000e+00
    X0000008  C0000098  -1.000000000000e+00
    X0000008  C0000111  -1.000000000000e+00
    X0000008  C0000112   1.000000000000e+00
    X0000009  C0000008  -1.000000000000e+00
    X0000009  C0000018  -1.000000000000e+00
    X0000009  C0000028  -1.000000000000e+00
    X0000009  C0000038  -1.000000000000e+00
    X0000009  C0000048  -1.000000000000e+00
    X0000009  C0000058  -1.000000000000e+00
    X0000009  C0000068  -1.000000000000e+00
    X0000009  C0000073   1.000000000000e+00
    X0000009  C0000074   1.000000000000e+00
    X0000009  C0000075   1.000000000000e+00
    X0000009  C0000076   1.000000000000e+00
    X0000009  C0000077   1.000000000000e+00
    X0000009  C0000078   1.000000000000e+00
    X0000009  C0000079   1.000000000000e+00
    X0000009  C0000080   1.000000000000e+00
    X0000009  C0000089  -1.000000000000e+00
    X0000009  C0000099  -1.000000000000e+00
    X0000009  C0000113  -1.000000000000e+00
    X0000009  C0000114   1.000000000000e+00
